$comment
OCS Hartree-Fock calculation - MO volume files generation
The HF MO coefficients are saved and used to restart the GS-VE and GS-CE EOM-CC calculations.
$end

$molecule
0 1
S       0.0000000000     0.0000000000    -1.0520150000
C       0.0000000000     0.0000000000     0.5371120000
O       0.0000000000     0.0000000000     1.7011960000
$end

$rem
   JOB_TYPE = sp
   BASIS = 6-311+G*
   METHOD  = hf
   SCF_FINAL_PRINT = 2
   PLOTS = 1     ! Activate new plot format
   MAKE_CUBE_FILES = true   !Volumetric data in the cube file format
$end

$plots
   grid_range (-5,5)  (-5,5)  (-7,7)
   grid_points 40 40 60
   alpha_molecular_orbital 1-74
$end

@@@

$comment
RIXS transition moment calculation - Oxygen K-Edge
RIXS GRID PARAMETERS: PUMP: 520eV-560eV, DUMP: 520eV-560eV, step: 0.027eV (i.e. 1e-3 a.u.), Gamma: 0.005 a.u.
GS + VE state properties
GS->VE 1P and 2P (i.e. RIXS) transition properties
$end

$molecule
read
$end

$rem
   JOB_TYPE = sp
   BASIS = 6-311+G*
   METHOD  =  eom-ccsd
   N_FROZEN_CORE = 2   !atom's core MO frozen = X-Ray edge
   SCF_GUESS = read      !take HF data from saved calculation
   SKIP_SCFMAN = true    !skip HF calculation, take data from saved
   CVS_EE_STATES = [0,0,0,0]   !just to invoke CVS
   EE_STATES = [3,3,3,3]   !number of states per irreducible representation
   STATE_ANALYSIS = true  ! Calculation of the 1PDMs of excited states 
   cc_trans_prop = 1  ! Transition properties (1=GS-VE, 3=all)
   GUI = 2          ! Drop DMs into checkpoint file
   CC_REF_PROP = 1  ! Activate REXS calculation and ground state analysis
   CC_EOM_RIXS = 1  ! Activate RIXS calculation using fc-CVS-EOM-EE-CCSD
$end

!Specification of the frequency grid
$rixs
   omega_1 4194000 220 1480 0
   omega_2 4194000 220 1 0
   damped_epsilon 0.0025 !Gamma/2
$end
