$comment
OCS Hartree-Fock calculation - MO volume files generation
The HF MO coefficients are saved and used to restart the GS-VE and GS-CE EOM-CC calculations.
$end

$molecule
0 1
S       0.0000000000     0.0000000000    -1.0520150000
C       0.0000000000     0.0000000000     0.5371120000
O       0.0000000000     0.0000000000     1.7011960000
$end

$rem
   JOB_TYPE = sp
   BASIS = 6-311+G*
   METHOD  = hf
   SCF_FINAL_PRINT = 2
   PLOTS = 1     ! Activate new plot format
   MAKE_CUBE_FILES = true   !Volumetric data in the cube file format
$end

$plots
   grid_range (-5,5)  (-5,5)  (-7,7)
   grid_points 40 40 60
   alpha_molecular_orbital 1-74
$end

@@@

$comment
XAS transition moments - Oxygen K-Edge
CE state properties
GS->CE and CE<->CE 1P transition properties
$end

$molecule
read
$end

$rem
  JOB_TYPE = sp
  BASIS = 6-311+G*
  METHOD  =  eom-ccsd
  N_FROZEN_CORE = 2
  SCF_GUESS = read
  SKIP_SCFMAN = true
  CVS_EE_STATES = [5,0,5,5] 
  STATE_ANALYSIS = true  ! Calculation of the DMs
  CC_TRANS_PROP = 3  ! Calculate transition properties
  GUI = 2          ! Drop DMs into checkpoint file
$end
